WARNING: for repeatability, setting FPU to use double precision
============================[ Problem Statistics ]=============================
|                                                                             |
|  Number of variables:           800                                         |
|  Number of clauses:           33848                                         |
|  Parse time:                   0.01 s                                       |
|                                                                             |
c ============================[ Search Statistics ]==============================
c | Conflicts |          ORIGINAL         |          LEARNT          | Progress |
c |           |    Vars  Clauses Literals |    Limit  Clauses Lit/Cl |          |
c ===============================================================================
c Switched to VSIDS.
c Switched to LRB.
c Switched to VSIDS.
c Switched to LRB.
c Switched to VSIDS.
c Switched to LRB.
c Switched to VSIDS.
c Switched to LRB.
c Switched to VSIDS.
c Switched to LRB.
c Switched to VSIDS.
c Switched to LRB.
c ===============================================================================
restarts                  : 87797
conflicts                 : 18744822       (5318 /sec)
decisions                 : 37667664       (0.00 % random) (10687 /sec)
propagations              : 740088563      (209971 /sec)
conflict literals         : 5186156952     (8.46 % deleted)

conflicts w/ DIP found    : 11456536       (61.12 % of conflicts)
conflicts w/ dangerous DIP: 0              (0.00 % of conflicts)
conflicts w/ DIP-learning : 2395           (0.01 % of conflicts)
decisions on ext vars     : 663            (0.00 % of decisions)
total ext vars            : 690         
tried delete ext vars     : 316         
deleted ext vars          : 316         
max ext vars              : 374         

Memory used               : 309.00 MB
CPU time                  : 3524.72 s
DIP computation time      : 96.7938 s (2.75 % of total time)
ER_sel time               : 35.2359 s
ER_add time               : 0.004878 s
ER_delC time              : 0 s
ER_delV time              : 0.662532 s
ER_sub time               : 37.3766 s
ER_stat time              : 0 s

INDETERMINATE
